c --- [ banner ] -------------------------------------------------------------
c 
c CaDiCaL Radically Simplified CDCL SAT Solver
c Copyright (c) 2016-2021 A. Biere, M. Fleury, N. Froleyks
c 
c Version 1.5.2 a5f15211db36c3956764e18194dd5bd63bf3b5e6
c g++ (GCC) 9.3.0 -Wall -Wextra -O3 -DNDEBUG
c Fri Oct 21 01:27:37 EDT 2022 Linux gra-login3 3.10.0-1160.66.1.el7.x86_64 x86_64
c 
c --- [ limit ] --------------------------------------------------------------
c 
c setting conflict limit to 200000 conflicts (due to '200000')
c 
c --- [ parsing input ] ------------------------------------------------------
c 
c reading DIMACS file from '33.cubes800.adj'
c opening file to read '33.cubes800.adj'
c found 'p cnf 6160 1595477' header
c parsed 1595477 clauses in 19.98 seconds process time
c closing file '33.cubes800.adj'
c after reading 1457566785 bytes 1390.0 MB
c 
c --- [ options ] ------------------------------------------------------------
c 
c all options are set to their default value
c 
c --- [ solving ] ------------------------------------------------------------
c 
c time measured in process time since initialization
c 
c  seconds    reductions  redundant   irredundant
c          MB     restarts       trail       variables
c            level   conflicts       glue         remaining
c 
c * 19.98 1359  0 0   0    0    0  0% 0 1595422 2404 39%
c { 20.68 1397  0 0   0    0    0  0% 0 1595422 2404 39%
c i 20.89 1411 1059 0   0   13   11 35% 1 1595422 2392 39%
c i 23.02 1479 508 0   5   35   30 32% 8 1595422 2391 39%
c i 23.19 1483 488 0   6   37   31 32% 8 1595422 2386 39%
c i 23.84 1487 416 0   7   48   39 30% 25 1595422 2380 39%
c i 24.08 1489 357 0  11   66   56 27% 20 1595422 2379 39%
c i 24.35 1494 347 0  12   72   59 27% 22 1595422 2377 39%
c i 24.96 1497 304 0  18   92   76 26% 26 1595422 2376 39%
c i 25.59 1498 199 0  20  149  127 28% 25 1595422 2375 39%
c i 25.64 1498 175 0  20  175  147 28% 25 1595422 2374 39%
c i 25.65 1498 171 0  20  180  150 28% 25 1595422 2373 39%
c i 25.66 1498 163 0  20  189  154 28% 24 1595422 2372 39%
c i 25.77 1498 152 0  20  205  168 28% 24 1595422 2371 38%
c i 25.78 1498 150 0  20  209  171 28% 24 1595422 2370 38%
c i 25.78 1498 149 0  20  210  171 28% 24 1595422 2369 38%
c i 25.78 1498 148 0  20  211  171 28% 23 1595422 2368 38%
c i 25.79 1498 146 0  20  215  173 28% 23 1595422 2367 38%
c i 25.89 1498 137 0  20  234  191 28% 23 1595422 2366 38%
c i 25.91 1498 136 0  20  238  193 28% 23 1595422 2365 38%
c 
c  seconds     reductions  redundant    irredundant
c          MB      restarts       trail        variables
c             level   conflicts       glue          remaining
c 
c i 26.13 1498 136 0  20  245  197 28% 24 1595422 2364 38%
c - 30.95 1381 119 1  29  305  230 27% 24 275151 2364 38%
c i 31.26 1382 117 1  29  322  243 27% 24 275151 2363 38%
c i 31.53 1382 110 1  34  359  274 27% 25 275151 2362 38%
c i 31.53 1382 110 1  35  360  274 27% 25 275151 2361 38%
c i 31.53 1382 109 1  35  361  274 27% 25 275151 2360 38%
c i 31.54 1382 109 1  36  366  277 27% 26 275151 2359 38%
c i 31.64 1382 105 1  39  386  290 27% 25 275151 2358 38%
c i 31.77 1382 100 1  39  421  316 27% 25 275151 2357 38%
c i 31.77 1382 100 1  39  422  316 27% 25 275151 2356 38%
c i 31.96 1382 97 1  39  467  351 27% 25 275151 2355 38%
c i 31.97 1382 96 1  39  472  353 27% 25 275151 2354 38%
c i 31.97 1382 96 1  39  473  353 27% 25 275151 2353 38%
c i 31.97 1382 96 1  39  474  353 27% 24 275151 2352 38%
c i 32.07 1382 92 1  39  511  375 27% 25 275151 2351 38%
c i 32.07 1382 89 1  39  537  394 27% 25 275151 2350 38%
c i 32.12 1382 86 1  39  567  406 27% 24 275151 2349 38%
c i 32.18 1382 84 1  39  590  420 27% 24 275151 2348 38%
c i 32.18 1382 83 1  39  593  422 27% 24 275151 2340 38%
c i 32.38 1382 76 1  39  677  486 27% 24 275151 2339 38%
c 
c  seconds    reductions  redundant   irredundant
c          MB     restarts       trail       variables
c            level   conflicts       glue         remaining
c 
c i 32.40 1382 76 1  39  686  493 28% 24 275151 2338 38%
c i 32.43 1382 75 1  39  695  498 27% 24 275151 2337 38%
c i 32.43 1382 75 1  39  697  499 27% 24 275151 2336 38%
c i 32.45 1382 75 1  39  700  501 27% 24 275151 2335 38%
c i 32.48 1382 73 1  39  725  517 28% 23 275151 2334 38%
c i 32.57 1382 71 1  39  761  542 28% 23 275151 2333 38%
c i 32.60 1382 71 1  39  765  545 28% 23 275151 2332 38%
c i 32.74 1382 66 1  39  846  605 28% 23 275151 2331 38%
c i 32.76 1382 66 1  39  860  616 28% 23 275151 2330 38%
c i 32.90 1382 65 1  42  897  643 28% 23 275151 2327 38%
c i 32.90 1382 65 1  42  898  643 28% 23 275151 2326 38%
c i 32.96 1382 65 1  42  910  653 28% 23 275151 2325 38%
c i 33.11 1382 66 1  44  922  663 28% 24 275151 2324 38%
c i 33.28 1382 67 1  49  949  683 28% 25 275151 2323 38%
c i 33.43 1382 69 1  57  976  708 28% 26 275151 2322 38%
c i 33.43 1382 69 1  57  979  710 28% 26 275151 2321 38%
c i 33.54 1383 69 1  60  991  721 28% 26 275151 2320 38%
c i 33.55 1383 69 1  60  992  721 28% 26 275151 2319 38%
c i 33.55 1383 69 1  62  997  725 28% 26 275151 2318 38%
c i 33.56 1383 69 1  62  998  725 28% 26 275151 2317 38%
c 
c  seconds    reductions  redundant   irredundant
c          MB     restarts       trail       variables
c            level   conflicts       glue         remaining
c 
c i 33.56 1383 69 1  62  999  725 28% 26 275151 2316 38%
c } 33.59 1383 69 1  63 1001  727 28% 26 275151 2316 38%
c [ 33.59 1383  0 1  63 1001  727  0% 0 275151 2316 38%
c O 33.59 1383  3 1  63 1002  728 12% 1 275151 2316 38%
c i 33.74 1383 15 1  63 1015  739 31% 11 275151 2315 38%
c i 33.75 1383 14 1  63 1016  739 32% 11 275151 2314 38%
c i 33.75 1383 14 1  63 1020  742 32% 11 275151 2313 38%
c i 33.75 1383 14 1  63 1022  743 32% 11 275151 2312 38%
c i 33.76 1383 16 1  63 1027  746 31% 13 275151 2311 38%
c i 33.76 1383 15 1  63 1028  746 31% 12 275151 2310 38%
c i 33.76 1383 15 1  63 1029  746 31% 12 275151 2309 37%
c i 33.76 1383 15 1  63 1031  746 31% 12 275151 2308 37%
c i 33.76 1383 14 1  63 1032  746 31% 11 275151 2307 37%
c i 33.76 1383 14 1  63 1033  746 31% 11 275151 2306 37%
c i 33.79 1383 16 1  63 1045  756 31% 12 275151 2305 37%
c i 33.80 1383 18 1  63 1050  760 31% 13 275151 2304 37%
c i 33.86 1383 24 1  63 1081  787 31% 19 275151 2303 37%
c i 33.87 1383 24 1  63 1085  786 30% 19 275151 2302 37%
c i 33.87 1383 24 1  63 1089  789 31% 20 275151 2301 37%
c i 33.88 1383 25 1  63 1100  798 30% 20 275151 2300 37%
c 
c  seconds    reductions  redundant   irredundant
c          MB     restarts       trail       variables
c            level   conflicts       glue         remaining
c 
c i 33.88 1383 25 1  63 1101  798 30% 20 275151 2299 37%
c i 33.88 1383 24 1  63 1102  798 30% 20 275151 2298 37%
c i 33.88 1383 24 1  63 1104  799 30% 20 275151 2297 37%
c i 33.88 1383 24 1  63 1106  800 30% 20 275151 2296 37%
c i 33.88 1383 24 1  63 1107  800 30% 19 275151 2295 37%
c i 33.88 1383 24 1  63 1108  800 30% 19 275151 2294 37%
c i 33.90 1383 24 1  63 1122  809 30% 20 275151 2293 37%
c i 33.92 1383 25 1  63 1146  823 30% 21 275151 2292 37%
c i 33.92 1383 25 1  63 1147  823 30% 21 275151 2291 37%
c i 33.92 1383 24 1  63 1148  823 30% 20 275151 2290 37%
c i 33.92 1383 24 1  63 1149  823 30% 20 275151 2289 37%
c i 33.93 1383 24 1  63 1152  825 30% 20 275151 2288 37%
c - 34.52 1504 24 2  63 1168  734 30% 20 274779 2288 37%
c i 34.65 1504 23 2  63 1225  782 30% 19 274779 2287 37%
c i 34.65 1504 22 2  63 1226  782 30% 19 274779 2286 37%
c i 34.65 1504 22 2  63 1227  782 30% 19 274779 2285 37%
c i 34.65 1504 22 2  63 1228  782 30% 19 274779 2284 37%
c i 34.65 1504 22 2  63 1229  782 30% 18 274779 2283 37%
c i 34.72 1504 23 2  63 1288  822 30% 20 274779 2282 37%
c i 34.73 1504 23 2  63 1289  822 30% 19 274779 2281 37%
c 
c  seconds    reductions  redundant   irredundant
c          MB     restarts       trail       variables
c            level   conflicts       glue         remaining
c 
c i 34.73 1504 23 2  63 1290  822 30% 19 274779 2280 37%
c i 34.73 1504 23 2  63 1291  822 30% 19 274779 2279 37%
c i 34.75 1504 23 2  63 1348  856 30% 19 274779 2278 37%
c i 34.75 1504 23 2  63 1358  862 30% 19 274779 2277 37%
c i 34.80 1504 23 2  63 1408  893 30% 20 274779 2276 37%
c i 34.81 1504 23 2  63 1432  904 30% 20 274779 2275 37%
c i 34.89 1504 25 2  63 1632 1008 30% 21 274779 2274 37%
c i 34.89 1504 25 2  63 1634 1007 30% 21 274779 2273 37%
c i 34.89 1504 25 2  63 1635 1007 30% 21 274779 2272 37%
c i 34.93 1504 24 2  63 1739 1046 30% 21 274779 2271 37%
c i 34.94 1504 24 2  63 1807 1081 30% 20 274779 2270 37%
c i 35.15 1504 23 2  64 2183 1292 30% 20 274779 2269 37%
c i 35.18 1504 23 2  64 2264 1319 30% 20 274779 2268 37%
c - 35.69 1500 22 3  64 2465 1040 30% 19 274719 2268 37%
c ] 36.46 1461 22 3  64 3001 1416 52% 19 274719 2268 37%
c { 36.46 1461 69 3  64 3001 1416 76% 26 274719 2268 37%
c F 36.47 1461 69 3  65 3004 1418 76% 26 274719 2268 37%
c i 36.47 1461 69 3  65 3004 1418 76% 26 274719 2267 37%
c i 36.49 1461 69 3  66 3006 1419 76% 26 274719 2266 37%
c i 36.49 1461 69 3  67 3008 1420 76% 26 274719 2265 37%
c 
c  seconds    reductions  redundant   irredundant
c          MB     restarts       trail       variables
c            level   conflicts       glue         remaining
c 
c i 36.49 1461 68 3  67 3009 1420 76% 26 274719 2264 37%
c i 37.23 1461 68 3  97 3127 1517 72% 27 274719 2263 37%
c i 37.57 1461 67 3 105 3196 1579 71% 27 274719 2262 37%
c i 37.76 1461 65 3 109 3297 1662 69% 27 274719 2261 37%
c i 38.19 1462 59 3 117 3616 1889 65% 26 274719 2260 37%
c i 38.70 1461 60 3 139 3755 2002 63% 27 274719 2259 37%
c i 38.79 1461 60 3 141 3775 2014 63% 27 274719 2258 37%
c i 39.27 1461 58 3 148 3896 2117 62% 27 274719 2257 37%
c i 39.33 1461 58 3 148 3940 2157 61% 26 274719 2256 37%
c i 39.40 1461 57 3 148 4026 2228 60% 26 274719 2255 37%
c i 39.51 1461 54 3 148 4188 2333 59% 26 274719 2254 37%
c - 39.87 1459 54 4 148 4191 1796 59% 26 274677 2254 37%
c i 40.01 1459 54 4 148 4207 1803 59% 26 274677 2253 37%
c i 40.04 1459 54 4 148 4217 1812 59% 26 274677 2252 37%
c i 40.23 1459 52 4 148 4319 1882 59% 25 274677 2251 37%
c i 40.23 1459 52 4 148 4322 1884 59% 25 274677 2250 37%
c i 40.65 1459 48 4 153 4746 2140 57% 24 274677 2249 37%
c d 41.31 1459 46 4 153 5003 2289 56% 24 258889 2231 36%
c 2 41.38 1459 46 4 153 5003 3385 56% 24 258889 2225 36%
c p 47.13 1459 46 4 153 5003 6871 56% 24 258889 2169 35%
c 
c  seconds    reductions  redundant   irredundant
c          MB     restarts       trail       variables
c            level   conflicts       glue         remaining
c 
c # 48.06 1459 38 4 156 6006 7465 54% 21 258889 2169 35%
c - 48.91 1346 37 5 165 6350 2371 54% 21 200403 2169 35%
c } 49.36 1346 35 5 165 7001 2933 54% 21 200403 2169 35%
c [ 49.36 1346 22 5 165 7001 2933 52% 19 200403 2169 35%
c - 50.06 1346 22 6 166 8693 2747 50% 19 200403 2169 35%
c ] 50.25 1346 22 6 166 9145 2985 50% 19 200403 2169 35%
c 1 50.25 1346 22 6 166 9145 2985 50% 19 200403 2169 35%
c 
c --- [ writing output ] -----------------------------------------------------
c 
c writing simplified CNF to DIMACS file 'simp/33.cubes800.adj.simp1'
c * 50.25 1346 22 6 166 9145 2985 50% 19 200403 2169 35%
c opening file to write 'simp/33.cubes800.adj.simp1'
c writing 'p cnf 6160 200403' header
c closing file 'simp/33.cubes800.adj.simp1'
c after writing 95223663 bytes 90.8 MB
c wrote 200403 clauses in 0.68 seconds process time
c 
c --- [ writing extension ] --------------------------------------------------
c 
c writing extension stack to 'simp/33.cubes800.adj.ext1'
c opening file to write 'simp/33.cubes800.adj.ext1'
c closing file 'simp/33.cubes800.adj.ext1'
c after writing 13018 bytes 0.0 MB
c wrote 865 witnesses in 0.00 seconds process time
c 
c --- [ result ] -------------------------------------------------------------
c 
s SATISFIABLE
c 
c --- [ run-time profiling ] -------------------------------------------------
c 
c process time taken by individual solving procedures
c (percentage relative to process time for solving)
c 
c        23.96   79.14% search
c        19.98   65.99% parse
c        19.49   64.39% unstable
c         6.31   20.86% simplify
c         5.75   19.00% probe
c         3.76   12.42% stable
c         0.71    2.33% lucky
c         0.05    0.16% ternary
c   =================================
c        30.27   59.44% solve
c 
c last line shows process time for solving
c (percentage relative to total process time)
c 
c --- [ statistics ] ---------------------------------------------------------
c 
c chronological:              1880        20.56 %  of conflicts
c conflicts:                  9145       302.09    per second
c decisions:                 30564      1009.62    per second
c fixed:                       829        13.46 %  of all variables
c learned:                    8936        97.71 %  per conflict
c learned_lits:            1580641       100.00 %  learned literals
c minimized:                     0         0.00 %  learned literals
c shrunken:                1053649        66.66 %  learned literals
c minishrunken:             121517         7.69 %  learned literals
c propagations:            1482418         0.05 M  per second
c reduced:                    3185        34.83 %  per conflict
c rephased:                      3      3048.33    interval
c restarts:                    166        55.09    interval
c stabilizing:                   2        45.31 %  of conflicts
c substituted:                  18         0.29 %  of all variables
c subsumed:                   2753         0.08 %  of all clauses
c ternary:                    1097         0.55 %  of resolved
c weakened:                     36         2.00    average size
c 
c seconds are measured in process time for solving
c 
c --- [ resources ] ----------------------------------------------------------
c 
c total process time since initialization:        50.93    seconds
c total real time since initialization:           51.55    seconds
c maximum resident set size of process:         1620.83    MB
c 
c --- [ shutting down ] ------------------------------------------------------
c 
c exit 10
WARNING! DIMACS header mismatch: wrong number of variables.
============================[ Problem Statistics ]=============================
|                                                                             |
|  Number of variables:          6120                                         |
|  Number of clauses:          200405                                         |
|  Parse time:                   1.25 s                                       |
|  Simplification time:          0.02 s                                       |
|                                                                             |
============================[ Search Statistics ]====================================================
| Conflicts |          ORIGINAL         |          LEARNT          | Num Sols |      SUBGRAPHS      |
|           |    Vars  Clauses Literals |    Limit  Clauses Lit/Cl |          | Canonical Noncanon. |
=====================================================================================================
|       100 |    6027   200405 20422838 |     2000      100     97 |        0 |        16         0 |
|       250 |    6027   200405 20422838 |     2000      250     90 |        0 |        24         0 |
|       517 |    6027   200447 20423683 |     2000      517     89 |        0 |        47        42 |
|       906 |    6027   200499 20425104 |     2000      906     80 |        0 |        69        94 |
|      1487 |    6027   200574 20426617 |     2000     1487     80 |        0 |        86       169 |
|      2364 |    6027   200692 20429475 |     3600     1364     52 |        0 |       136       287 |
|      3580 |    6027   200769 20431405 |     3600     2580     66 |        0 |       198       364 |
|      5414 |    6027   200895 20433489 |     5002     2616     49 |        0 |       246       490 |
|      8166 |    6027   201085 20437418 |     6307     2873     41 |        0 |       322       680 |
|     12163 |    6027   201238 20441077 |     7554     3717     45 |        0 |       402       833 |
|     18268 |    6027   201577 20446986 |     8784     6052     55 |        0 |       637      1172 |
|     27427 |    6027   202087 20456136 |    11202     5829     40 |        0 |       979      1682 |
|     42169 |    6027   203855 20488099 |    13611     8780     49 |        0 |      1724      3450 |
|     65224 |    6027   207449 20544329 |    17209     9633     36 |        0 |      3150      7044 |
|     97461 |    6027   210494 20583661 |    20812    14273     48 |        0 |      4455     10089 |
|    147928 |    6027   217172 20673825 |    25608    19536     54 |        0 |      7091     16767 |
|    225745 |    6027   229305 20859238 |    31612    27357     45 |        0 |     11616     28900 |
|    331204 |    6027   236238 20960947 |    38812    29016     44 |        0 |     15650     35833 |
=====================================================================================================
Number of solutions   : 0
Canonical subgraphs   : 24178          (99 /sec)
          order  3    : 1              (200000 /sec)
          order  4    : 1              (1000000 /sec)
          order  5    : 1              (250000 /sec)
          order  6    : 1              (55556 /sec)
          order  7    : 2              (10101 /sec)
          order  8    : 2              (4630 /sec)
          order  9    : 4              (2140 /sec)
          order 10    : 15             (1091 /sec)
          order 11    : 39             (651 /sec)
          order 12    : 201            (381 /sec)
          order 13    : 690            (263 /sec)
          order 14    : 3927           (148 /sec)
          order 15    : 9076           (112 /sec)
          order 16    : 5039           (85 /sec)
          order 17    : 2440           (75 /sec)
          order 18    : 1521           (70 /sec)
          order 19    : 534            (67 /sec)
          order 20    : 337            (63 /sec)
          order 21    : 347            (59 /sec)
          order 22    : 0              (-nan /sec)
Noncanonical subgraphs: 61602          (543 /sec)
          order  3    : 0              (-nan /sec)
          order  4    : 0              (-nan /sec)
          order  5    : 0              (-nan /sec)
          order  6    : 0              (-nan /sec)
          order  7    : 0              (-nan /sec)
          order  8    : 0              (-nan /sec)
          order  9    : 0              (-nan /sec)
          order 10    : 0              (-nan /sec)
          order 11    : 0              (-nan /sec)
          order 12    : 0              (-nan /sec)
          order 13    : 1744           (6530 /sec)
          order 14    : 14395          (1339 /sec)
          order 15    : 27427          (635 /sec)
          order 16    : 17566          (333 /sec)
          order 17    : 61             (330 /sec)
          order 18    : 34             (798 /sec)
          order 19    : 11             (451 /sec)
          order 20    : 6              (1248 /sec)
          order 21    : 1              (1825 /sec)
Canonicity checking   : 243.841 s
Noncanonicity checking: 113.453 s
Total canonicity time : 357.294 s
database reductions   : 36
restarts              : 1022
conflicts             : 455032         (742 /sec)
decisions             : 656355         (0.00 % random) (1071 /sec)
propagations          : 50517097       (82418 /sec)
conflict literals     : 40110372       (55.20 % deleted)
actual reward         : 0.111143
Memory used           : 283.00 MB
CPU time              : 612.934 s

UNSATISFIABLE
